Route 1: 0 50 89 31 28 44 55 85 78 0
Route 2: 0 11 3 87 27 16 64 98 34 70 0
Route 3: 0 96 66 48 6 99 61 75 37 0
Route 4: 0 94 12 29 95 88 22 0
Route 5: 0 54 7 30 58 100 4 97 10 69 0
Route 6: 0 18 76 82 73 43 2 35 15 81 77 33 0
Route 7: 0 90 17 92 57 39 68 67 9 63 91 23 0
Route 8: 0 49 65 40 51 60 80 25 13 21 0
Route 9: 0 56 20 14 84 72 41 8 19 0
Route 10: 0 93 71 59 5 38 74 26 0
Route 11: 0 83 42 24 62 86 47 46 1 79 0
Route 12: 0 52 45 36 53 32 0
